NAME : OMNETRUN
COMMENT : 524.61
TYPE : CVRP
DIMENSION : 21
EDGE_WEIGHT_TYPE : EUC_2D
CAPACITY : 21
NODE_COORD_SECTION
1 0.107093 -0.77924
2 142.828 -679.319
3 78.8803 -1529.7
4 143.44 -3235.47
5 230.531 -4652.47
6 209.252 -5332.56
7 383.801 -230.706
8 488.2 -1195.05
9 461.549 -1677.41
10 350.099 -2071.71
11 286.512 -3907.5
12 742.724 -118.164
13 734.518 -706.825
14 510.941 -2762.96
15 709.426 -3238.07
16 625.092 -3625.26
17 698.243 -5734.34
18 982.525 -1012.81
19 767.324 -2085.25
20 982.605 -2419.31
21 757.743 -4268.48
DEMAND_SECTION
1 0
2 1
3 1
4 1
5 1
6 1
7 1
8 1
9 1
10 1
11 1
12 1
13 1
14 1
15 1
16 1
17 1
18 1
19 1
20 1
21 1
DEPOT_SECTION
1
-1
EOF
